c 167_3_checker.cnf
c
c field = 167
c formula set type = 3_checker
c
p cnf 4 30
330 
334 
336 
-338 
331 
335 
337 
-339 
334 
336 
338 
-330 
335 
337 
339 
-331 
334 
336 
338 
-340 
335 
337 
339 
-341 
242 
272 
302 
-212 
243 
273 
303 
-213 
242 
272 
302 
-362 
243 
273 
303 
-363 
272 
302 
362 
-242 
273 
303 
363 
-243 
272 
302 
362 
-392 
273 
303 
363 
-393 
302 
362 
392 
-272 
303 
363 
393 
-273 
302 
362 
392 
-422 
303 
363 
393 
-423 
362 
392 
422 
-302 
363 
393 
423 
-303 
300 
364 
396 
-428 
301 
365 
397 
-429 
364 
396 
428 
-300 
365 
397 
429 
-301 
248 
276 
304 
-220 
249 
277 
305 
-221 
248 
276 
304 
-360 
249 
277 
305 
-361 
276 
304 
360 
-248 
277 
305 
361 
-249 
